p cnf 252 932
1 2 3 4 0
-1 73 0
-2 73 0
-1 -2 74 0
-3 75 0
-4 75 0
-3 -4 76 0
-73 77 0
-75 77 0
-73 -75 78 0
-74 79 0
-76 79 0
-74 -76 80 0
-78 81 0
-79 81 0
-78 -79 82 0
-81 0
25 26 27 28 0
-25 83 0
-26 83 0
-25 -26 84 0
-27 85 0
-28 85 0
-27 -28 86 0
-83 87 0
-85 87 0
-83 -85 88 0
-84 89 0
-86 89 0
-84 -86 90 0
-88 91 0
-89 91 0
-88 -89 92 0
-91 0
49 50 51 52 0
-49 93 0
-50 93 0
-49 -50 94 0
-51 95 0
-52 95 0
-51 -52 96 0
-93 97 0
-95 97 0
-93 -95 98 0
-94 99 0
-96 99 0
-94 -96 100 0
-98 101 0
-99 101 0
-98 -99 102 0
-101 0
5 6 7 8 0
-5 103 0
-6 103 0
-5 -6 104 0
-7 105 0
-8 105 0
-7 -8 106 0
-103 107 0
-105 107 0
-103 -105 108 0
-104 109 0
-106 109 0
-104 -106 110 0
-108 111 0
-109 111 0
-108 -109 112 0
-111 0
29 30 31 32 0
-29 113 0
-30 113 0
-29 -30 114 0
-31 115 0
-32 115 0
-31 -32 116 0
-113 117 0
-115 117 0
-113 -115 118 0
-114 119 0
-116 119 0
-114 -116 120 0
-118 121 0
-119 121 0
-118 -119 122 0
-121 0
53 54 55 56 0
-53 123 0
-54 123 0
-53 -54 124 0
-55 125 0
-56 125 0
-55 -56 126 0
-123 127 0
-125 127 0
-123 -125 128 0
-124 129 0
-126 129 0
-124 -126 130 0
-128 131 0
-129 131 0
-128 -129 132 0
-131 0
9 10 11 12 0
-9 133 0
-10 133 0
-9 -10 134 0
-11 135 0
-12 135 0
-11 -12 136 0
-133 137 0
-135 137 0
-133 -135 138 0
-134 139 0
-136 139 0
-134 -136 140 0
-138 141 0
-139 141 0
-138 -139 142 0
-141 0
33 34 35 36 0
-33 143 0
-34 143 0
-33 -34 144 0
-35 145 0
-36 145 0
-35 -36 146 0
-143 147 0
-145 147 0
-143 -145 148 0
-144 149 0
-146 149 0
-144 -146 150 0
-148 151 0
-149 151 0
-148 -149 152 0
-151 0
57 58 59 60 0
-57 153 0
-58 153 0
-57 -58 154 0
-59 155 0
-60 155 0
-59 -60 156 0
-153 157 0
-155 157 0
-153 -155 158 0
-154 159 0
-156 159 0
-154 -156 160 0
-158 161 0
-159 161 0
-158 -159 162 0
-161 0
13 14 15 16 0
-13 163 0
-14 163 0
-13 -14 164 0
-15 165 0
-16 165 0
-15 -16 166 0
-163 167 0
-165 167 0
-163 -165 168 0
-164 169 0
-166 169 0
-164 -166 170 0
-168 171 0
-169 171 0
-168 -169 172 0
-171 0
37 38 39 40 0
-37 173 0
-38 173 0
-37 -38 174 0
-39 175 0
-40 175 0
-39 -40 176 0
-173 177 0
-175 177 0
-173 -175 178 0
-174 179 0
-176 179 0
-174 -176 180 0
-178 181 0
-179 181 0
-178 -179 182 0
-181 0
61 62 63 64 0
-61 183 0
-62 183 0
-61 -62 184 0
-63 185 0
-64 185 0
-63 -64 186 0
-183 187 0
-185 187 0
-183 -185 188 0
-184 189 0
-186 189 0
-184 -186 190 0
-188 191 0
-189 191 0
-188 -189 192 0
-191 0
17 18 19 20 0
-17 193 0
-18 193 0
-17 -18 194 0
-19 195 0
-20 195 0
-19 -20 196 0
-193 197 0
-195 197 0
-193 -195 198 0
-194 199 0
-196 199 0
-194 -196 200 0
-198 201 0
-199 201 0
-198 -199 202 0
-201 0
41 42 43 44 0
-41 203 0
-42 203 0
-41 -42 204 0
-43 205 0
-44 205 0
-43 -44 206 0
-203 207 0
-205 207 0
-203 -205 208 0
-204 209 0
-206 209 0
-204 -206 210 0
-208 211 0
-209 211 0
-208 -209 212 0
-211 0
65 66 67 68 0
-65 213 0
-66 213 0
-65 -66 214 0
-67 215 0
-68 215 0
-67 -68 216 0
-213 217 0
-215 217 0
-213 -215 218 0
-214 219 0
-216 219 0
-214 -216 220 0
-218 221 0
-219 221 0
-218 -219 222 0
-221 0
21 22 23 24 0
-21 223 0
-22 223 0
-21 -22 224 0
-23 225 0
-24 225 0
-23 -24 226 0
-223 227 0
-225 227 0
-223 -225 228 0
-224 229 0
-226 229 0
-224 -226 230 0
-228 231 0
-229 231 0
-228 -229 232 0
-231 0
45 46 47 48 0
-45 233 0
-46 233 0
-45 -46 234 0
-47 235 0
-48 235 0
-47 -48 236 0
-233 237 0
-235 237 0
-233 -235 238 0
-234 239 0
-236 239 0
-234 -236 240 0
-238 241 0
-239 241 0
-238 -239 242 0
-241 0
69 70 71 72 0
-69 243 0
-70 243 0
-69 -70 244 0
-71 245 0
-72 245 0
-71 -72 246 0
-243 247 0
-245 247 0
-243 -245 248 0
-244 249 0
-246 249 0
-244 -246 250 0
-248 251 0
-249 251 0
-248 -249 252 0
-251 0
-1 -25 -49 6 0
-1 -26 -49 6 0
-1 -27 -49 6 0
-1 -28 -49 6 0
-1 -25 -50 6 0
-1 -26 -50 6 0
-1 -27 -50 6 0
-1 -28 -50 6 0
-1 -25 -51 6 0
-1 -26 -51 6 0
-1 -27 -51 6 0
-1 -28 -51 6 0
-1 -25 -52 6 0
-1 -26 -52 6 0
-1 -27 -52 6 0
-1 -28 -52 6 0
-2 -25 -49 6 0
-2 -26 -49 6 0
-2 -27 -49 6 0
-2 -28 -49 6 0
-2 -25 -50 6 0
-2 -26 -50 7 0
-2 -27 -50 7 0
-2 -28 -50 7 0
-2 -25 -51 6 0
-2 -26 -51 7 0
-2 -27 -51 7 0
-2 -28 -51 7 0
-2 -25 -52 6 0
-2 -26 -52 7 0
-2 -27 -52 7 0
-2 -28 -52 7 0
-3 -25 -49 6 0
-3 -26 -49 6 0
-3 -27 -49 6 0
-3 -28 -49 6 0
-3 -25 -50 6 0
-3 -26 -50 7 0
-3 -27 -50 7 0
-3 -28 -50 7 0
-3 -25 -51 6 0
-3 -26 -51 7 0
-3 -27 -51 8 0
-3 -28 -51 8 0
-3 -25 -52 6 0
-3 -26 -52 7 0
-3 -27 -52 8 0
-3 -28 -52 8 0
-4 -25 -49 6 0
-4 -26 -49 6 0
-4 -27 -49 6 0
-4 -28 -49 6 0
-4 -25 -50 6 0
-4 -26 -50 7 0
-4 -27 -50 7 0
-4 -28 -50 7 0
-4 -25 -51 6 0
-4 -26 -51 7 0
-4 -27 -51 8 0
-4 -28 -51 8 0
-4 -25 -52 6 0
-4 -26 -52 7 0
-4 -27 -52 8 0
-4 -28 -52 5 0
-25 -1 30 0
-25 -2 30 0
-25 -3 30 0
-25 -4 30 0
-26 -1 30 0
-26 -2 31 0
-26 -3 31 0
-26 -4 31 0
-27 -1 30 0
-27 -2 31 0
-27 -3 32 0
-27 -4 32 0
-28 -1 30 0
-28 -2 31 0
-28 -3 32 0
-28 -4 29 0
-49 -1 54 0
-49 -2 54 0
-49 -3 54 0
-49 -4 54 0
-50 -1 54 0
-50 -2 55 0
-50 -3 55 0
-50 -4 55 0
-51 -1 54 0
-51 -2 55 0
-51 -3 56 0
-51 -4 56 0
-52 -1 54 0
-52 -2 55 0
-52 -3 56 0
-52 -4 53 0
-5 -29 -53 10 0
-5 -30 -53 10 0
-5 -31 -53 10 0
-5 -32 -53 10 0
-5 -29 -54 10 0
-5 -30 -54 10 0
-5 -31 -54 10 0
-5 -32 -54 10 0
-5 -29 -55 10 0
-5 -30 -55 10 0
-5 -31 -55 10 0
-5 -32 -55 10 0
-5 -29 -56 10 0
-5 -30 -56 10 0
-5 -31 -56 10 0
-5 -32 -56 10 0
-6 -29 -53 10 0
-6 -30 -53 10 0
-6 -31 -53 10 0
-6 -32 -53 10 0
-6 -29 -54 10 0
-6 -30 -54 11 0
-6 -31 -54 11 0
-6 -32 -54 11 0
-6 -29 -55 10 0
-6 -30 -55 11 0
-6 -31 -55 11 0
-6 -32 -55 11 0
-6 -29 -56 10 0
-6 -30 -56 11 0
-6 -31 -56 11 0
-6 -32 -56 11 0
-7 -29 -53 10 0
-7 -30 -53 10 0
-7 -31 -53 10 0
-7 -32 -53 10 0
-7 -29 -54 10 0
-7 -30 -54 11 0
-7 -31 -54 11 0
-7 -32 -54 11 0
-7 -29 -55 10 0
-7 -30 -55 11 0
-7 -31 -55 12 0
-7 -32 -55 12 0
-7 -29 -56 10 0
-7 -30 -56 11 0
-7 -31 -56 12 0
-7 -32 -56 12 0
-8 -29 -53 10 0
-8 -30 -53 10 0
-8 -31 -53 10 0
-8 -32 -53 10 0
-8 -29 -54 10 0
-8 -30 -54 11 0
-8 -31 -54 11 0
-8 -32 -54 11 0
-8 -29 -55 10 0
-8 -30 -55 11 0
-8 -31 -55 12 0
-8 -32 -55 12 0
-8 -29 -56 10 0
-8 -30 -56 11 0
-8 -31 -56 12 0
-8 -32 -56 9 0
-29 -5 34 0
-29 -6 34 0
-29 -7 34 0
-29 -8 34 0
-30 -5 34 0
-30 -6 35 0
-30 -7 35 0
-30 -8 35 0
-31 -5 34 0
-31 -6 35 0
-31 -7 36 0
-31 -8 36 0
-32 -5 34 0
-32 -6 35 0
-32 -7 36 0
-32 -8 33 0
-53 -5 58 0
-53 -6 58 0
-53 -7 58 0
-53 -8 58 0
-54 -5 58 0
-54 -6 59 0
-54 -7 59 0
-54 -8 59 0
-55 -5 58 0
-55 -6 59 0
-55 -7 60 0
-55 -8 60 0
-56 -5 58 0
-56 -6 59 0
-56 -7 60 0
-56 -8 57 0
-9 -33 -57 14 0
-9 -34 -57 14 0
-9 -35 -57 14 0
-9 -36 -57 14 0
-9 -33 -58 14 0
-9 -34 -58 14 0
-9 -35 -58 14 0
-9 -36 -58 14 0
-9 -33 -59 14 0
-9 -34 -59 14 0
-9 -35 -59 14 0
-9 -36 -59 14 0
-9 -33 -60 14 0
-9 -34 -60 14 0
-9 -35 -60 14 0
-9 -36 -60 14 0
-10 -33 -57 14 0
-10 -34 -57 14 0
-10 -35 -57 14 0
-10 -36 -57 14 0
-10 -33 -58 14 0
-10 -34 -58 15 0
-10 -35 -58 15 0
-10 -36 -58 15 0
-10 -33 -59 14 0
-10 -34 -59 15 0
-10 -35 -59 15 0
-10 -36 -59 15 0
-10 -33 -60 14 0
-10 -34 -60 15 0
-10 -35 -60 15 0
-10 -36 -60 15 0
-11 -33 -57 14 0
-11 -34 -57 14 0
-11 -35 -57 14 0
-11 -36 -57 14 0
-11 -33 -58 14 0
-11 -34 -58 15 0
-11 -35 -58 15 0
-11 -36 -58 15 0
-11 -33 -59 14 0
-11 -34 -59 15 0
-11 -35 -59 16 0
-11 -36 -59 16 0
-11 -33 -60 14 0
-11 -34 -60 15 0
-11 -35 -60 16 0
-11 -36 -60 16 0
-12 -33 -57 14 0
-12 -34 -57 14 0
-12 -35 -57 14 0
-12 -36 -57 14 0
-12 -33 -58 14 0
-12 -34 -58 15 0
-12 -35 -58 15 0
-12 -36 -58 15 0
-12 -33 -59 14 0
-12 -34 -59 15 0
-12 -35 -59 16 0
-12 -36 -59 16 0
-12 -33 -60 14 0
-12 -34 -60 15 0
-12 -35 -60 16 0
-12 -36 -60 13 0
-33 -9 38 0
-33 -10 38 0
-33 -11 38 0
-33 -12 38 0
-34 -9 38 0
-34 -10 39 0
-34 -11 39 0
-34 -12 39 0
-35 -9 38 0
-35 -10 39 0
-35 -11 40 0
-35 -12 40 0
-36 -9 38 0
-36 -10 39 0
-36 -11 40 0
-36 -12 37 0
-57 -9 62 0
-57 -10 62 0
-57 -11 62 0
-57 -12 62 0
-58 -9 62 0
-58 -10 63 0
-58 -11 63 0
-58 -12 63 0
-59 -9 62 0
-59 -10 63 0
-59 -11 64 0
-59 -12 64 0
-60 -9 62 0
-60 -10 63 0
-60 -11 64 0
-60 -12 61 0
-13 -37 -61 18 0
-13 -38 -61 18 0
-13 -39 -61 18 0
-13 -40 -61 18 0
-13 -37 -62 18 0
-13 -38 -62 18 0
-13 -39 -62 18 0
-13 -40 -62 18 0
-13 -37 -63 18 0
-13 -38 -63 18 0
-13 -39 -63 18 0
-13 -40 -63 18 0
-13 -37 -64 18 0
-13 -38 -64 18 0
-13 -39 -64 18 0
-13 -40 -64 18 0
-14 -37 -61 18 0
-14 -38 -61 18 0
-14 -39 -61 18 0
-14 -40 -61 18 0
-14 -37 -62 18 0
-14 -38 -62 19 0
-14 -39 -62 19 0
-14 -40 -62 19 0
-14 -37 -63 18 0
-14 -38 -63 19 0
-14 -39 -63 19 0
-14 -40 -63 19 0
-14 -37 -64 18 0
-14 -38 -64 19 0
-14 -39 -64 19 0
-14 -40 -64 19 0
-15 -37 -61 18 0
-15 -38 -61 18 0
-15 -39 -61 18 0
-15 -40 -61 18 0
-15 -37 -62 18 0
-15 -38 -62 19 0
-15 -39 -62 19 0
-15 -40 -62 19 0
-15 -37 -63 18 0
-15 -38 -63 19 0
-15 -39 -63 20 0
-15 -40 -63 20 0
-15 -37 -64 18 0
-15 -38 -64 19 0
-15 -39 -64 20 0
-15 -40 -64 20 0
-16 -37 -61 18 0
-16 -38 -61 18 0
-16 -39 -61 18 0
-16 -40 -61 18 0
-16 -37 -62 18 0
-16 -38 -62 19 0
-16 -39 -62 19 0
-16 -40 -62 19 0
-16 -37 -63 18 0
-16 -38 -63 19 0
-16 -39 -63 20 0
-16 -40 -63 20 0
-16 -37 -64 18 0
-16 -38 -64 19 0
-16 -39 -64 20 0
-16 -40 -64 17 0
-37 -13 42 0
-37 -14 42 0
-37 -15 42 0
-37 -16 42 0
-38 -13 42 0
-38 -14 43 0
-38 -15 43 0
-38 -16 43 0
-39 -13 42 0
-39 -14 43 0
-39 -15 44 0
-39 -16 44 0
-40 -13 42 0
-40 -14 43 0
-40 -15 44 0
-40 -16 41 0
-61 -13 66 0
-61 -14 66 0
-61 -15 66 0
-61 -16 66 0
-62 -13 66 0
-62 -14 67 0
-62 -15 67 0
-62 -16 67 0
-63 -13 66 0
-63 -14 67 0
-63 -15 68 0
-63 -16 68 0
-64 -13 66 0
-64 -14 67 0
-64 -15 68 0
-64 -16 65 0
-17 -41 -65 22 0
-17 -42 -65 22 0
-17 -43 -65 22 0
-17 -44 -65 22 0
-17 -41 -66 22 0
-17 -42 -66 22 0
-17 -43 -66 22 0
-17 -44 -66 22 0
-17 -41 -67 22 0
-17 -42 -67 22 0
-17 -43 -67 22 0
-17 -44 -67 22 0
-17 -41 -68 22 0
-17 -42 -68 22 0
-17 -43 -68 22 0
-17 -44 -68 22 0
-18 -41 -65 22 0
-18 -42 -65 22 0
-18 -43 -65 22 0
-18 -44 -65 22 0
-18 -41 -66 22 0
-18 -42 -66 23 0
-18 -43 -66 23 0
-18 -44 -66 23 0
-18 -41 -67 22 0
-18 -42 -67 23 0
-18 -43 -67 23 0
-18 -44 -67 23 0
-18 -41 -68 22 0
-18 -42 -68 23 0
-18 -43 -68 23 0
-18 -44 -68 23 0
-19 -41 -65 22 0
-19 -42 -65 22 0
-19 -43 -65 22 0
-19 -44 -65 22 0
-19 -41 -66 22 0
-19 -42 -66 23 0
-19 -43 -66 23 0
-19 -44 -66 23 0
-19 -41 -67 22 0
-19 -42 -67 23 0
-19 -43 -67 24 0
-19 -44 -67 24 0
-19 -41 -68 22 0
-19 -42 -68 23 0
-19 -43 -68 24 0
-19 -44 -68 24 0
-20 -41 -65 22 0
-20 -42 -65 22 0
-20 -43 -65 22 0
-20 -44 -65 22 0
-20 -41 -66 22 0
-20 -42 -66 23 0
-20 -43 -66 23 0
-20 -44 -66 23 0
-20 -41 -67 22 0
-20 -42 -67 23 0
-20 -43 -67 24 0
-20 -44 -67 24 0
-20 -41 -68 22 0
-20 -42 -68 23 0
-20 -43 -68 24 0
-20 -44 -68 21 0
-41 -17 46 0
-41 -18 46 0
-41 -19 46 0
-41 -20 46 0
-42 -17 46 0
-42 -18 47 0
-42 -19 47 0
-42 -20 47 0
-43 -17 46 0
-43 -18 47 0
-43 -19 48 0
-43 -20 48 0
-44 -17 46 0
-44 -18 47 0
-44 -19 48 0
-44 -20 45 0
-65 -17 70 0
-65 -18 70 0
-65 -19 70 0
-65 -20 70 0
-66 -17 70 0
-66 -18 71 0
-66 -19 71 0
-66 -20 71 0
-67 -17 70 0
-67 -18 71 0
-67 -19 72 0
-67 -20 72 0
-68 -17 70 0
-68 -18 71 0
-68 -19 72 0
-68 -20 69 0
74 75 76 77 78 0
83 84 85 86 -74 0
1 -83 0
5 -83 0
2 -84 0
6 -84 0
3 -85 0
7 -85 0
4 -86 0
8 -86 0
107 108 109 110 -74 0
25 -107 0
29 -107 0
26 -108 0
30 -108 0
27 -109 0
31 -109 0
28 -110 0
32 -110 0
131 132 133 134 -74 0
49 -131 0
53 -131 0
50 -132 0
54 -132 0
51 -133 0
55 -133 0
52 -134 0
56 -134 0
87 88 89 90 -75 0
1 -87 0
9 -87 0
2 -88 0
10 -88 0
3 -89 0
11 -89 0
4 -90 0
12 -90 0
111 112 113 114 -75 0
25 -111 0
33 -111 0
26 -112 0
34 -112 0
27 -113 0
35 -113 0
28 -114 0
36 -114 0
135 136 137 138 -75 0
49 -135 0
57 -135 0
50 -136 0
58 -136 0
51 -137 0
59 -137 0
52 -138 0
60 -138 0
91 92 93 94 -76 0
1 -91 0
13 -91 0
2 -92 0
14 -92 0
3 -93 0
15 -93 0
4 -94 0
16 -94 0
115 116 117 118 -76 0
25 -115 0
37 -115 0
26 -116 0
38 -116 0
27 -117 0
39 -117 0
28 -118 0
40 -118 0
139 140 141 142 -76 0
49 -139 0
61 -139 0
50 -140 0
62 -140 0
51 -141 0
63 -141 0
52 -142 0
64 -142 0
95 96 97 98 -77 0
1 -95 0
17 -95 0
2 -96 0
18 -96 0
3 -97 0
19 -97 0
4 -98 0
20 -98 0
119 120 121 122 -77 0
25 -119 0
41 -119 0
26 -120 0
42 -120 0
27 -121 0
43 -121 0
28 -122 0
44 -122 0
143 144 145 146 -77 0
49 -143 0
65 -143 0
50 -144 0
66 -144 0
51 -145 0
67 -145 0
52 -146 0
68 -146 0
99 100 101 102 -78 0
1 -99 0
21 -99 0
2 -100 0
22 -100 0
3 -101 0
23 -101 0
4 -102 0
24 -102 0
123 124 125 126 -78 0
25 -123 0
45 -123 0
26 -124 0
46 -124 0
27 -125 0
47 -125 0
28 -126 0
48 -126 0
147 148 149 150 -78 0
49 -147 0
69 -147 0
50 -148 0
70 -148 0
51 -149 0
71 -149 0
52 -150 0
72 -150 0
-1 -25 -49 0
-2 -26 -50 0
-3 -27 -51 0
-4 -28 -52 0
-49 -26 0
-49 -27 0
-49 -28 0
-50 -27 0
-50 -28 0
-51 -28 0
